int NumberPatients = 124
int NumberOfRooms = 3
int NumberSurgeons = 26
int NumberOfDays = 6
Duration = [159,114,59,93,260,66,131,47,103,103,114,98,47,32,90,107,32,256,32,68,66,64,208,32,47,31,32,72,103,131,123,39,59,31,112,93,119,119,119,31,97,105,60,85,66,85,31,166,272,30,119,50,105,66,30,103,66,60,93,32,58,98,47,98,60,138,201,66,210,131,85,32,47,130,119,66,217,198,53,130,47,72,30,107,145,210,59,29,107,98,38,72,78,210,90,166,78,30,93,61,41,238,114,166,119,53,85,53,32,66,72,60,119,31,256,68,103,132,105,97,238,93,101,32];
Priority = [0,0,0,0,0,0,0,0,0,1,0,0,0,0,0,0,0,0,0,0,0,0,0,0,0,0,0,0,0,0,0,0,0,0,0,0,0,0,0,0,0,0,0,0,0,0,0,0,0,0,0,0,0,0,0,0,0,0,0,0,0,0,0,0,0,0,0,0,0,0,0,0,0,1,0,0,0,0,1,0,0,0,0,0,0,0,0,0,0,0,0,0,0,0,0,0,0,0,0,0,0,0,0,0,0,0,0,0,0,0,0,0,0,0,0,0,0,0,0,0,0,0,0,0];
Waiting = [171,21,77,178,45,155,297,59,43,155,1096,178,84,200,85,127,66,438,78,56,190,382,389,116,480,158,58,107,113,24,73,78,211,494,375,102,80,79,183,256,53,410,248,78,155,59,25,148,149,53,134,95,198,36,178,121,59,366,127,36,137,32,354,261,37,56,156,604,220,70,80,79,134,63,113,389,32,164,158,178,45,361,56,277,170,25,221,102,127,25,107,387,354,23,35,116,148,99,366,269,84,24,116,52,67,59,43,53,169,148,158,382,102,56,79,71,50,221,191,66,66,59,79,58];
Surgeon = [4,5,1,5,2,3,6,6,3,3,3,1,1,6,7,3,6,1,6,9,3,3,3,4,6,1,8,11,6,11,6,2,1,6,3,6,1,1,4,5,1,4,6,6,7,6,6,3,1,1,1,1,4,4,4,1,10,1,2,5,1,3,3,1,3,3,2,9,1,3,2,1,3,6,3,2,4,6,2,3,9,7,2,3,8,1,13,2,5,10,4,4,10,2,3,5,6,1,4,3,4,7,5,5,1,5,1,1,1,5,2,5,1,6,5,1,4,5,7,6,5,6,3,3];
BlockAvailability = [[[0,0],[0,0],[0,0]],[[0,0],[0,0],[1,0]],[[0,0],[1,0],[0,0]],[[0,1],[1,1],[0,0]],[[0,1],[1,0],[0,1]],[[0,0],[0,0],[0,0]]];
SurgeonAvailability = [[[0,1],[1,0],[1,1],[1,1],[1,1],[0,0]],[[1,1],[1,1],[0,1],[1,1],[1,1],[0,0]],[[1,1],[1,0],[1,1],[1,1],[1,0],[1,0]],[[1,1],[1,1],[0,0],[1,1],[1,1],[1,1]],[[1,0],[1,1],[1,1],[0,0],[1,1],[1,1]],[[1,1],[0,1],[1,1],[1,0],[1,1],[1,1]],[[1,1],[1,1],[1,1],[0,1],[1,0],[1,1]],[[0,1],[1,1],[1,1],[1,0],[1,0],[1,1]],[[1,1],[1,1],[1,1],[1,0],[1,0],[1,1]],[[0,1],[1,1],[1,1],[1,1],[0,1],[1,0]],[[1,0],[0,1],[1,1],[1,1],[1,0],[1,0]],[[1,1],[0,1],[1,0],[1,0],[1,1],[1,1]],[[1,1],[0,0],[1,1],[1,1],[1,1],[1,1]],[[1,1],[1,1],[1,1],[1,1],[1,1],[0,0]],[[0,0],[1,1],[0,1],[1,1],[1,0],[1,1]],[[1,1],[1,0],[0,1],[1,1],[1,0],[1,0]],[[1,1],[1,1],[1,1],[0,0],[1,1],[1,0]],[[1,0],[1,0],[1,1],[1,1],[1,1],[1,0]],[[1,0],[1,1],[1,1],[1,1],[1,1],[0,1]],[[1,0],[1,1],[1,1],[1,1],[1,1],[1,1]],[[0,1],[1,0],[1,0],[1,1],[1,1],[1,1]],[[1,0],[1,0],[1,0],[1,1],[1,1],[1,1]],[[1,0],[1,1],[1,1],[0,0],[1,0],[1,0]],[[0,1],[1,1],[1,0],[1,1],[1,1],[0,0]],[[1,0],[1,1],[0,1],[1,1],[1,0],[0,0]],[[1,1],[1,1],[1,1],[1,1],[1,0],[1,0]]];
